nK = 651;
nT = 4;
nI = 7;
L = 29;
TT = 148;
np = 1;
nc = 3;
b = [30, 48, 64, 41, 68, 37, 67];
d = [111, 149, 107, 90, 106, 65, 109];
m = [2.4, 1.9, 1.4, 1.8, 1.8, 2.3, 1.9];
pt = [0.21, 0.28, 0.25, 0.29];
st = [11.34, 14.56, 10.25, 15.37];
arc = {<1, 0, 1, 1, 0, 0, 0, [1, 1, 1, 1]>, <2, 1, 2, 1, 0, 0, 0, [1, 1, 1, 1]>, <3, 2, 3, 1, 0, 0, 0, [1, 1, 1, 1]>, <4, 3, 4, 1, 0, 0, 0, [1, 1, 1, 1]>, <5, 4, 5, 1, 0, 0, 0, [1, 1, 1, 1]>, <6, 5, 6, 1, 0, 0, 0, [1, 1, 1, 1]>, <7, 6, 7, 1, 0, 0, 0, [1, 1, 1, 1]>, <8, 7, 8, 1, 0, 0, 0, [1, 1, 1, 1]>, <9, 8, 9, 1, 0, 0, 0, [1, 1, 1, 1]>, <10, 9, 10, 1, 0, 0, 0, [1, 1, 1, 1]>, <11, 10, 11, 1, 0, 0, 0, [1, 1, 1, 1]>, <12, 11, 12, 1, 0, 0, 0, [1, 1, 1, 1]>, <13, 12, 13, 1, 0, 0, 0, [1, 1, 1, 1]>, <14, 13, 14, 1, 0, 0, 0, [1, 1, 1, 1]>, <15, 14, 15, 1, 0, 0, 0, [1, 1, 1, 1]>, <16, 15, 16, 1, 0, 0, 0, [1, 1, 1, 1]>, <17, 16, 17, 1, 0, 0, 0, [1, 1, 1, 1]>, <18, 17, 18, 1, 0, 0, 0, [1, 1, 1, 1]>, <19, 18, 19, 1, 0, 0, 0, [1, 1, 1, 1]>, <20, 19, 20, 1, 0, 0, 0, [1, 1, 1, 1]>, <21, 20, 21, 1, 0, 0, 0, [1, 1, 1, 1]>, <22, 21, 22, 1, 0, 0, 0, [1, 1, 1, 1]>, <23, 22, 23, 1, 0, 0, 0, [1, 1, 1, 1]>, <24, 23, 24, 1, 0, 0, 0, [1, 1, 1, 1]>, <25, 24, 25, 1, 0, 0, 0, [1, 1, 1, 1]>, <26, 25, 26, 1, 0, 0, 0, [1, 1, 1, 1]>, <27, 26, 27, 1, 0, 0, 0, [1, 1, 1, 1]>, <28, 27, 28, 1, 0, 0, 0, [1, 1, 1, 1]>, <29, 28, 29, 1, 0, 0, 0, [1, 1, 1, 1]>, <30, 3, 12, 9, 1, 1, 0, [1, 1, 0, 0]>, <31, 4, 13, 9, 1, 1, 0, [1, 1, 0, 0]>, <32, 5, 14, 9, 1, 1, 0, [1, 1, 0, 0]>, <33, 11, 20, 9, 1, 1, 0, [1, 1, 0, 0]>, <34, 12, 21, 9, 1, 1, 0, [1, 1, 0, 0]>, <35, 15, 24, 9, 1, 1, 0, [1, 1, 0, 0]>, <36, 16, 25, 9, 1, 1, 0, [1, 1, 0, 0]>, <37, 17, 26, 9, 1, 1, 0, [1, 1, 0, 0]>, <38, 18, 27, 9, 1, 1, 0, [1, 1, 0, 0]>, <39, 19, 28, 9, 1, 1, 0, [1, 1, 0, 0]>, <40, 20, 29, 9, 1, 1, 0, [1, 1, 0, 0]>, <41, 4, 11, 7, 2, 0, 0, [0, 1, 1, 0]>, <42, 5, 12, 7, 2, 0, 0, [0, 1, 1, 0]>, <43, 11, 18, 7, 2, 0, 0, [0, 1, 1, 0]>, <44, 12, 19, 7, 2, 0, 0, [0, 1, 1, 0]>, <45, 17, 24, 7, 2, 0, 0, [0, 1, 1, 0]>, <46, 18, 25, 7, 2, 0, 0, [0, 1, 1, 0]>, <47, 19, 26, 7, 2, 0, 0, [0, 1, 1, 0]>, <48, 20, 27, 7, 2, 0, 0, [0, 1, 1, 0]>, <49, 1, 12, 11, 3, 0, 0, [1, 0, 0, 1]>, <50, 2, 13, 11, 3, 0, 0, [1, 0, 0, 1]>, <51, 3, 14, 11, 3, 0, 0, [1, 0, 0, 1]>, <52, 4, 15, 11, 3, 0, 0, [1, 0, 0, 1]>, <53, 5, 16, 11, 3, 0, 0, [1, 0, 0, 1]>, <54, 9, 20, 11, 3, 0, 0, [1, 0, 0, 1]>, <55, 10, 21, 11, 3, 0, 0, [1, 0, 0, 1]>, <56, 11, 22, 11, 3, 0, 0, [1, 0, 0, 1]>, <57, 12, 23, 11, 3, 0, 0, [1, 0, 0, 1]>, <58, 13, 24, 11, 3, 0, 0, [1, 0, 0, 1]>, <59, 14, 25, 11, 3, 0, 0, [1, 0, 0, 1]>, <60, 15, 26, 11, 3, 0, 0, [1, 0, 0, 1]>, <61, 16, 27, 11, 3, 0, 0, [1, 0, 0, 1]>, <62, 17, 28, 11, 3, 0, 0, [1, 0, 0, 1]>, <63, 18, 29, 11, 3, 0, 0, [1, 0, 0, 1]>, <64, 1, 12, 11, 4, 0, 1, [0, 0, 1, 1]>, <65, 2, 13, 11, 4, 0, 1, [0, 0, 1, 1]>, <66, 3, 14, 11, 4, 0, 1, [0, 0, 1, 1]>, <67, 4, 15, 11, 4, 0, 1, [0, 0, 1, 1]>, <68, 5, 16, 11, 4, 0, 1, [0, 0, 1, 1]>, <69, 9, 20, 11, 4, 0, 1, [0, 0, 1, 1]>, <70, 10, 21, 11, 4, 0, 1, [0, 0, 1, 1]>, <71, 11, 22, 11, 4, 0, 1, [0, 0, 1, 1]>, <72, 12, 23, 11, 4, 0, 1, [0, 0, 1, 1]>, <73, 13, 24, 11, 4, 0, 1, [0, 0, 1, 1]>, <74, 14, 25, 11, 4, 0, 1, [0, 0, 1, 1]>, <75, 15, 26, 11, 4, 0, 1, [0, 0, 1, 1]>, <76, 16, 27, 11, 4, 0, 1, [0, 0, 1, 1]>, <77, 17, 28, 11, 4, 0, 1, [0, 0, 1, 1]>, <78, 18, 29, 11, 4, 0, 1, [0, 0, 1, 1]>, <79, 3, 12, 9, 5, 0, 0, [0, 1, 1, 0]>, <80, 4, 13, 9, 5, 0, 0, [0, 1, 1, 0]>, <81, 5, 14, 9, 5, 0, 0, [0, 1, 1, 0]>, <82, 11, 20, 9, 5, 0, 0, [0, 1, 1, 0]>, <83, 12, 21, 9, 5, 0, 0, [0, 1, 1, 0]>, <84, 15, 24, 9, 5, 0, 0, [0, 1, 1, 0]>, <85, 16, 25, 9, 5, 0, 0, [0, 1, 1, 0]>, <86, 17, 26, 9, 5, 0, 0, [0, 1, 1, 0]>, <87, 18, 27, 9, 5, 0, 0, [0, 1, 1, 0]>, <88, 19, 28, 9, 5, 0, 0, [0, 1, 1, 0]>, <89, 20, 29, 9, 5, 0, 0, [0, 1, 1, 0]>, <90, 1, 12, 11, 6, 0, 1, [1, 1, 0, 0]>, <91, 2, 13, 11, 6, 0, 1, [1, 1, 0, 0]>, <92, 3, 14, 11, 6, 0, 1, [1, 1, 0, 0]>, <93, 4, 15, 11, 6, 0, 1, [1, 1, 0, 0]>, <94, 5, 16, 11, 6, 0, 1, [1, 1, 0, 0]>, <95, 9, 20, 11, 6, 0, 1, [1, 1, 0, 0]>, <96, 10, 21, 11, 6, 0, 1, [1, 1, 0, 0]>, <97, 11, 22, 11, 6, 0, 1, [1, 1, 0, 0]>, <98, 12, 23, 11, 6, 0, 1, [1, 1, 0, 0]>, <99, 13, 24, 11, 6, 0, 1, [1, 1, 0, 0]>, <100, 14, 25, 11, 6, 0, 1, [1, 1, 0, 0]>, <101, 15, 26, 11, 6, 0, 1, [1, 1, 0, 0]>, <102, 16, 27, 11, 6, 0, 1, [1, 1, 0, 0]>, <103, 17, 28, 11, 6, 0, 1, [1, 1, 0, 0]>, <104, 18, 29, 11, 6, 0, 1, [1, 1, 0, 0]>, <105, 1, 12, 11, 7, 0, 1, [0, 1, 1, 0]>, <106, 2, 13, 11, 7, 0, 1, [0, 1, 1, 0]>, <107, 3, 14, 11, 7, 0, 1, [0, 1, 1, 0]>, <108, 4, 15, 11, 7, 0, 1, [0, 1, 1, 0]>, <109, 5, 16, 11, 7, 0, 1, [0, 1, 1, 0]>, <110, 9, 20, 11, 7, 0, 1, [0, 1, 1, 0]>, <111, 10, 21, 11, 7, 0, 1, [0, 1, 1, 0]>, <112, 11, 22, 11, 7, 0, 1, [0, 1, 1, 0]>, <113, 12, 23, 11, 7, 0, 1, [0, 1, 1, 0]>, <114, 13, 24, 11, 7, 0, 1, [0, 1, 1, 0]>, <115, 14, 25, 11, 7, 0, 1, [0, 1, 1, 0]>, <116, 15, 26, 11, 7, 0, 1, [0, 1, 1, 0]>, <117, 16, 27, 11, 7, 0, 1, [0, 1, 1, 0]>, <118, 17, 28, 11, 7, 0, 1, [0, 1, 1, 0]>, <119, 18, 29, 11, 7, 0, 1, [0, 1, 1, 0]>};
